Instance Name : r106
Date : 2022-07-18
Solution
Route 1 : 21 72 39 23 67 55 4 25 26
Route 2 : 59 37 14 44 38 86 43 100 98 93
Route 3 : 82 47 36 19 90 10 31
Route 4 : 63 11 64 49 46 48 7 52
Route 5 : 73 41 22 75 56 74 2 58
Route 6 : 12 29 78 79 68 54 24 80
Route 7 : 50 33 65 71 66 20 32 70 1
Route 8 : 28 76 40 53
Route 9 : 96 85 91 16 61 99 6
Route 10 : 94 92 42 15 57 87 97 95 13
Route 11 : 69 30 51 81 9 35 34 3 77
Route 12 : 83 45 8 84 17 5 60
Route 13 : 27 62 88 18 89
